Version identifier: 22.1.0.0 | 2022-03-09 | 1a383f8ce
CPXPARAM_Threads                                 1
CPXPARAM_MIP_Strategy_VariableSelect             3
CPXPARAM_TimeLimit                               599.999985111
1 of 1 MIP starts provided solutions.
MIP start 'm1' defined initial solution with objective 1.0000.
Tried aggregator 2 times.
MIP Presolve eliminated 37 rows and 1 columns.
MIP Presolve added 32 rows and 8 columns.
MIP Presolve modified 73 coefficients.
Aggregator did 8 substitutions.
Reduced MIP has 1213 rows, 5200 columns, and 76896 nonzeros.
Reduced MIP has 5200 binaries, 0 generals, 0 SOSs, and 0 indicators.
Presolve time = 0.10 sec. (133.02 ticks)
Probing time = 0.02 sec. (15.17 ticks)
Tried aggregator 1 time.
Detecting symmetries...
MIP Presolve modified 14 coefficients.
Reduced MIP has 1213 rows, 5200 columns, and 77272 nonzeros.
Reduced MIP has 5200 binaries, 0 generals, 0 SOSs, and 0 indicators.
Presolve time = 0.07 sec. (86.53 ticks)
Probing time = 0.02 sec. (15.22 ticks)
Clique table members: 800.
MIP emphasis: balance optimality and feasibility.
MIP search method: dynamic search.
Parallel mode: none, using 1 thread.
Root relaxation solution time = 0.88 sec. (1058.22 ticks)

        Nodes                                         Cuts/
   Node  Left     Objective  IInf  Best Integer    Best Bound    ItCnt     Gap

*     0+    0                            1.0000    20100.0000              --- 
      0     0      200.0000   837        1.0000      200.0000     4183     --- 
*     0+    0                           37.0000      200.0000           440.54%
      0     0      200.0000   168       37.0000    Cliques: 1     4497  440.54%
      0     0      200.0000   219       37.0000      Cuts: 75     6654  440.54%
      0     0      200.0000   191       37.0000      Cuts: 13     8327  440.54%
*     0+    0                          109.0000      200.0000            83.49%
*     0+    0                          134.0000      200.0000            49.25%
*     0+    0                          184.0000      200.0000             8.70%
      0     0        cutoff            184.0000      200.0000     8327    8.70%
      0     0      200.0000   400      184.0000      Cuts: 11    10243    8.70%
*     0+    0                          188.0000      200.0000             6.38%
*     0+    0                          193.0000      200.0000             3.63%
*     0+    0                          196.0000      200.0000             2.04%
Detecting symmetries...
      0     2      200.0000   132      196.0000      200.0000    10243    2.04%
Elapsed time = 19.92 sec. (21822.65 ticks, tree = 0.01 MB, solutions = 8)
      1     3      200.0000   166      196.0000      200.0000    15891    2.04%
      2     4      200.0000   133      196.0000      200.0000    18472    2.04%
      3     5      200.0000   326      196.0000      200.0000    22048    2.04%
      4     6      200.0000   149      196.0000      200.0000    23303    2.04%
      5     7      200.0000   319      196.0000      200.0000    27927    2.04%
      6     8      200.0000   150      196.0000      200.0000    32693    2.04%
      7     9      200.0000   454      196.0000      200.0000    36096    2.04%
      8    10      200.0000   163      196.0000      200.0000    36425    2.04%
      9    11      200.0000   335      196.0000      200.0000    40113    2.04%
     11    13      200.0000   502      196.0000      200.0000    44381    2.04%
Elapsed time = 29.80 sec. (32626.38 ticks, tree = 0.08 MB, solutions = 8)
     15    17      200.0000   599      196.0000      200.0000    45946    2.04%
     17    19      200.0000   504      196.0000      200.0000    49976    2.04%
     20    22      200.0000   327      196.0000      200.0000    51461    2.04%
     21    23      200.0000   327      196.0000      200.0000    56364    2.04%
     23    25      200.0000   341      196.0000      200.0000    63171    2.04%
     25    27      197.0000   332      196.0000      200.0000    66984    2.04%
     27    29      200.0000   185      196.0000      200.0000    69312    2.04%
     29    31      200.0000   214      196.0000      200.0000    73344    2.04%
     31    33      200.0000   322      196.0000      200.0000    76546    2.04%
     34    36      200.0000   191      196.0000      200.0000    78942    2.04%
Elapsed time = 42.13 sec. (45817.94 ticks, tree = 0.22 MB, solutions = 8)
     35    37      200.0000   230      196.0000      200.0000    82796    2.04%
     38    40      200.0000   191      196.0000      200.0000    84641    2.04%
     40    42      200.0000   177      196.0000      200.0000    87653    2.04%
     44    46      200.0000   158      196.0000      200.0000    90484    2.04%
     47    49      200.0000   147      196.0000      200.0000    92328    2.04%
     49    51      200.0000   312      196.0000      200.0000    95126    2.04%
     51    53      200.0000   143      196.0000      200.0000    97136    2.04%
     54    56      200.0000   162      196.0000      200.0000   100317    2.04%
     57    58      200.0000   124      196.0000      200.0000   103369    2.04%
     60    61      200.0000   249      196.0000      200.0000   106708    2.04%
Elapsed time = 56.11 sec. (59990.92 ticks, tree = 0.45 MB, solutions = 8)
     63    64      200.0000   224      196.0000      200.0000   108882    2.04%
     67    67      200.0000   219      196.0000      200.0000   111799    2.04%
     70    69      200.0000   172      196.0000      200.0000   114537    2.04%
     74    73      200.0000   287      196.0000      200.0000   118626    2.04%
     76    75      200.0000   352      196.0000      200.0000   122405    2.04%
     78    77      200.0000   318      196.0000      200.0000   127411    2.04%
     80    78      200.0000   240      196.0000      200.0000   133738    2.04%
     84    82      200.0000   247      196.0000      200.0000   136544    2.04%
     87    85      200.0000   205      196.0000      200.0000   140382    2.04%
     89    87      200.0000   246      196.0000      200.0000   144876    2.04%
Elapsed time = 68.16 sec. (72065.10 ticks, tree = 0.75 MB, solutions = 8)
     91    88      199.9725   339      196.0000      200.0000   150813    2.04%
     94    91      200.0000   276      196.0000      200.0000   158596    2.04%
     96    92      199.9630   321      196.0000      200.0000   164597    2.04%
    100    95      199.0000   277      196.0000      200.0000   170784    2.04%
    103    97      200.0000   226      196.0000      200.0000   178403    2.04%
    105    99      200.0000   170      196.0000      200.0000   183558    2.04%
    108   102      200.0000   205      196.0000      200.0000   188832    2.04%
    112   105      199.4551   235      196.0000      200.0000   194106    2.04%
    115   107      199.6316   265      196.0000      200.0000   199176    2.04%
    117   108      199.0000   220      196.0000      200.0000   206407    2.04%
Elapsed time = 81.34 sec. (84908.40 ticks, tree = 0.96 MB, solutions = 8)
    120   111      199.0000   237      196.0000      200.0000   210477    2.04%
    124   115      199.0000    86      196.0000      200.0000   215469    2.04%
    128   119      199.0000   216      196.0000      200.0000   220719    2.04%
    131   122      199.0000   131      196.0000      200.0000   226598    2.04%
    135   125      199.0000    69      196.0000      200.0000   233508    2.04%
    138   127      199.0000   111      196.0000      200.0000   239841    2.04%
    141   130      199.0000   102      196.0000      200.0000   245031    2.04%
    145   132      198.5000   295      196.0000      200.0000   251679    2.04%
    149   135      198.0000   162      196.0000      200.0000   259324    2.04%
    154   139      197.0000    95      196.0000      200.0000   265876    2.04%
Elapsed time = 93.31 sec. (96003.39 ticks, tree = 1.03 MB, solutions = 8)
    160   139    infeasible            196.0000      200.0000   274837    2.04%
    165   139      199.9083   295      196.0000      200.0000   284281    2.04%
    167   140      199.9876   329      196.0000      200.0000   289893    2.04%
    170   142      200.0000   108      196.0000      200.0000   295448    2.04%
    173   144      200.0000    87      196.0000      200.0000   301095    2.04%
    176   146      199.8716   332      196.0000      200.0000   306863    2.04%
    179   148      200.0000   130      196.0000      200.0000   313781    2.04%
    182   151      200.0000   100      196.0000      200.0000   318605    2.04%
    185   153      200.0000    96      196.0000      200.0000   324364    2.04%
    189   155      200.0000    92      196.0000      200.0000   331643    2.04%
Elapsed time = 105.72 sec. (107786.26 ticks, tree = 1.14 MB, solutions = 8)
    192   157      199.9176   242      196.0000      200.0000   338048    2.04%
    196   160      200.0000    82      196.0000      200.0000   341954    2.04%
    201   164      200.0000   205      196.0000      200.0000   347085    2.04%
    205   168      197.0000   179      196.0000      200.0000   350664    2.04%
    209   170      200.0000   199      196.0000      200.0000   356114    2.04%
    213   173      200.0000   163      196.0000      200.0000   361172    2.04%
    218   177      200.0000   114      196.0000      200.0000   364493    2.04%
    220   179      200.0000   145      196.0000      200.0000   367084    2.04%
    225   182      200.0000   142      196.0000      200.0000   372645    2.04%
    228   184      200.0000   131      196.0000      200.0000   378199    2.04%
Elapsed time = 117.18 sec. (118655.39 ticks, tree = 1.46 MB, solutions = 8)
    232   186      200.0000   125      196.0000      200.0000   385452    2.04%
    237   189      199.0000   176      196.0000      200.0000   390169    2.04%
    242   194      199.0000   201      196.0000      200.0000   392948    2.04%
    249   200      199.0000   205      196.0000      200.0000   395617    2.04%
    254   205      199.0000   164      196.0000      200.0000   399155    2.04%
    260   210      199.0000   154      196.0000      200.0000   403113    2.04%
    265   214      199.0000   210      196.0000      200.0000   407083    2.04%
    271   219      199.0000   206      196.0000      200.0000   411815    2.04%
    278   224      199.0000   230      196.0000      200.0000   414606    2.04%
    285   227      197.0000   155      196.0000      200.0000   420390    2.04%
Elapsed time = 128.64 sec. (129230.53 ticks, tree = 1.95 MB, solutions = 8)
    294   234      198.0000   101      196.0000      200.0000   424336    2.04%
    302   237      197.0000    91      196.0000      200.0000   430320    2.04%
    310   242    infeasible            196.0000      200.0000   435182    2.04%
    316   243      200.0000   118      196.0000      200.0000   440359    2.04%
    320   246      199.0000   289      196.0000      200.0000   444969    2.04%
    324   250      199.0000   176      196.0000      200.0000   448650    2.04%
    328   254      199.0000   156      196.0000      200.0000   452571    2.04%
    332   255    infeasible            196.0000      200.0000   458982    2.04%
    336   257      198.0000   113      196.0000      200.0000   464732    2.04%
    353   256    infeasible            196.0000      200.0000   490582    2.04%
Elapsed time = 144.17 sec. (143425.56 ticks, tree = 2.07 MB, solutions = 8)
    373   268      198.0000   117      196.0000      200.0000   508689    2.04%
    398   283      198.0000   102      196.0000      200.0000   525916    2.04%
    419   294      199.0000    90      196.0000      200.0000   547086    2.04%
    435   306      199.0000   129      196.0000      200.0000   568368    2.04%
    453   315      197.0000   192      196.0000      200.0000   593767    2.04%
    473   318    infeasible            196.0000      200.0000   621794    2.04%
    494   323      198.6163   284      196.0000      200.0000   646017    2.04%
    520   332      198.0000    82      196.0000      200.0000   666119    2.04%
    537   342      198.0000   111      196.0000      200.0000   686105    2.04%
    569   353      197.0000    72      196.0000      200.0000   708579    2.04%
Elapsed time = 188.12 sec. (182602.47 ticks, tree = 2.26 MB, solutions = 8)
    590   362      198.0000   121      196.0000      200.0000   731049    2.04%
    612   373      197.0000   272      196.0000      200.0000   749941    2.04%
    630   381      200.0000   104      196.0000      200.0000   771283    2.04%
    640   388      200.0000   107      196.0000      200.0000   789424    2.04%
    651   395      199.8269   229      196.0000      200.0000   811107    2.04%
    667   409      199.0000   144      196.0000      200.0000   827144    2.04%
    685   422      198.0000   106      196.0000      200.0000   845572    2.04%
    709   434    infeasible            196.0000      200.0000   868266    2.04%
    726   446      198.0000   156      196.0000      200.0000   885006    2.04%
    753   457      199.0000   154      196.0000      200.0000   905459    2.04%
Elapsed time = 231.74 sec. (222160.76 ticks, tree = 2.51 MB, solutions = 8)
    782   481      197.0000    46      196.0000      200.0000   918581    2.04%
    807   493      197.0000   132      196.0000      200.0000   936904    2.04%
    836   508      198.0000   150      196.0000      200.0000   954079    2.04%
    858   518      199.9464   294      196.0000      200.0000   974879    2.04%
    872   528      197.0000   178      196.0000      200.0000   994107    2.04%
    894   548      198.0000    98      196.0000      200.0000  1007369    2.04%
    919   563      198.0000   190      196.0000      200.0000  1024861    2.04%
    946   572    infeasible            196.0000      200.0000  1044004    2.04%
    971   586    infeasible            196.0000      200.0000  1061121    2.04%
*   986+  461                          197.0000      200.0000             1.52%
    986   462      200.0000   121      197.0000      200.0000  1069793    1.52%
Elapsed time = 275.74 sec. (261874.18 ticks, tree = 3.12 MB, solutions = 9)
    987   462      199.0000   189      197.0000      200.0000  1072990    1.52%
   1003   474    infeasible            197.0000      200.0000  1091755    1.52%
   1022   487      199.0000   174      197.0000      200.0000  1108555    1.52%
   1045   495    infeasible            197.0000      200.0000  1130189    1.52%
   1070   496    infeasible            197.0000      200.0000  1158070    1.52%
   1088   510      199.0000   206      197.0000      200.0000  1172743    1.52%

Performing restart 1

Repeating presolve.
Tried aggregator 1 time.
MIP Presolve eliminated 0 rows and 197 columns.
MIP Presolve modified 14856 coefficients.
Reduced MIP has 1213 rows, 5003 columns, and 54124 nonzeros.
Reduced MIP has 5003 binaries, 0 generals, 0 SOSs, and 0 indicators.
Presolve time = 0.05 sec. (41.34 ticks)
Tried aggregator 1 time.
Reduced MIP has 1213 rows, 5003 columns, and 54124 nonzeros.
Reduced MIP has 5003 binaries, 0 generals, 0 SOSs, and 0 indicators.
Presolve time = 0.04 sec. (31.06 ticks)
Represolve time = 0.46 sec. (261.34 ticks)
   1096     0      200.0000   233      197.0000       Cuts: 3  1183070    1.52%
   1096     0      200.0000   256      197.0000      Cuts: 14  1184445    1.52%
   1096     0      200.0000   240      197.0000      Cuts: 23  1186255    1.52%
   1096     2      200.0000   155      197.0000      200.0000  1186255    1.52%
   1101     7      200.0000   133      197.0000      200.0000  1198858    1.52%
   1107    13      200.0000   461      197.0000      200.0000  1215779    1.52%
   1115    21      200.0000   296      197.0000      200.0000  1233433    1.52%
Elapsed time = 362.88 sec. (347269.33 ticks, tree = 0.08 MB, solutions = 9)
   1127    33      200.0000   398      197.0000      200.0000  1251558    1.52%
   1139    45      200.0000   321      197.0000      200.0000  1274947    1.52%
   1149    55      200.0000   249      197.0000      200.0000  1294132    1.52%
   1158    64      200.0000   162      197.0000      200.0000  1312463    1.52%
   1167    71      198.0000   243      197.0000      200.0000  1333295    1.52%
   1178    80      200.0000   162      197.0000      200.0000  1352629    1.52%
   1188    87      200.0000   107      197.0000      200.0000  1375511    1.52%
   1196    93      200.0000   129      197.0000      200.0000  1391669    1.52%
   1209   102      198.9265   217      197.0000      200.0000  1410625    1.52%
   1234   122      198.0000   145      197.0000      200.0000  1425768    1.52%
Elapsed time = 415.78 sec. (398597.91 ticks, tree = 0.53 MB, solutions = 9)
   1256   130      198.0000    80      197.0000      200.0000  1443523    1.52%
   1289   143    infeasible            197.0000      200.0000  1459771    1.52%
   1295   149      200.0000   282      197.0000      200.0000  1468743    1.52%
   1302   156      200.0000   238      197.0000      200.0000  1481423    1.52%
   1312   165      199.4844   458      197.0000      200.0000  1494639    1.52%
   1322   174      198.0000   139      197.0000      200.0000  1506237    1.52%
   1336   184      198.0000   180      197.0000      200.0000  1521542    1.52%
   1359   195      198.0000   166      197.0000      200.0000  1539726    1.52%
   1381   203      198.0000   221      197.0000      200.0000  1555333    1.52%
   1408   204      199.0833   239      197.0000      200.0000  1578222    1.52%
Elapsed time = 457.90 sec. (438574.87 ticks, tree = 1.54 MB, solutions = 9)
   1430   217      198.0000   183      197.0000      200.0000  1594001    1.52%
   1444   227      199.0833   143      197.0000      200.0000  1611024    1.52%
   1459   235      200.0000   124      197.0000      200.0000  1631358    1.52%
   1480   250      198.0000   117      197.0000      200.0000  1648133    1.52%
   1499   255      200.0000   114      197.0000      200.0000  1671215    1.52%
   1523   271      198.0000   162      197.0000      200.0000  1686574    1.52%
   1550   279      198.0000   168      197.0000      200.0000  1706402    1.52%
   1573   283      198.0000   197      197.0000      200.0000  1728879    1.52%
   1597   293      198.0000   152      197.0000      200.0000  1746622    1.52%
   1621   299      198.0000   199      197.0000      200.0000  1766084    1.52%
Elapsed time = 501.32 sec. (478083.06 ticks, tree = 2.65 MB, solutions = 9)
   1647   304      198.0000   133      197.0000      200.0000  1785871    1.52%
   1670   313      198.0000   196      197.0000      200.0000  1804097    1.52%
   1694   324      200.0000   158      197.0000      200.0000  1818930    1.52%
   1703   332      200.0000   204      197.0000      200.0000  1835475    1.52%
   1712   341      200.0000   178      197.0000      200.0000  1850475    1.52%
   1724   353      200.0000   197      197.0000      200.0000  1863639    1.52%
   1736   360    infeasible            197.0000      200.0000  1881500    1.52%
   1751   366    infeasible            197.0000      200.0000  1900877    1.52%
   1776   372      199.0000   121      197.0000      200.0000  1920384    1.52%
   1791   371    infeasible            197.0000      200.0000  1942085    1.52%
Elapsed time = 543.25 sec. (517712.52 ticks, tree = 3.52 MB, solutions = 9)
Starting limited solution polishing.
   1806   373    infeasible            197.0000      200.0000  1963240    1.52%
   1823   374      200.0000   130      197.0000      200.0000  1983884    1.52%
   1838   389      200.0000   138      197.0000      200.0000  1995248    1.52%
   1850   400      199.0000   198      197.0000      200.0000  2010283    1.52%
   1866   412    infeasible            197.0000      200.0000  2023287    1.52%
   1876   415      199.0000   169      197.0000      200.0000  2044576    1.52%
   1887   415        cutoff            197.0000      200.0000  2067506    1.52%
   1896   416      200.0000   116      197.0000      200.0000  2089148    1.52%
   1906   419      200.0000   162      197.0000      200.0000  2110254    1.52%
   1924   421    infeasible            197.0000      200.0000  2128587    1.52%
Elapsed time = 584.34 sec. (556945.27 ticks, tree = 3.90 MB, solutions = 9)
   1943   423    infeasible            197.0000      200.0000  2147327    1.52%
   1962   427      200.0000   196      197.0000      200.0000  2169091    1.52%
   1976   427    infeasible            197.0000      200.0000  2190548    1.52%

Clique cuts applied:  13
Mixed integer rounding cuts applied:  1
Zero-half cuts applied:  7

Root node processing (before b&c):
  Real time             =   19.83 sec. (21744.33 ticks)
Sequential b&c:
  Real time             =  580.17 sec. (549905.59 ticks)
                          ------------
Total (root+branch&cut) =  600.00 sec. (571649.92 ticks)
Primal:	197
Dual:	200
Status:	Feasible
Time:	599.98
Sequence:
	23
	8
	14
	10
	16
	7
	13
	14
	7
	12
	14
	9
	10
	14
	7
	23
	0
	18
	5
	14
	7
	21
	1
	20
	10
	14
	7
	23
	2
	18
	10
	14
	7
	19
	5
	18
	7
	3
	20
	7
	3
	18
	7
	6
	7
	18
	3
	18
	9
	5
	18
	7
	3
	7
	20
	5
	7
	18
	3
	18
	8
	16
	12
	7
	14
	8
	18
	3
	18
	7
	15
	10
	16
	7
	18
	3
	19
	7
	14
	7
	18
	4
	18
	7
	16
	7
	21
	1
	18
	12
	15
	7
	12
	14
	7
	13
	14
	7
	21
	1
	20
	10
	14
	7
	12
	15
	7
	21
	1
	18
	10
	15
	7
	10
	14
	7
	21
	1
	19
	12
	14
	7
	10
	14
	9
	18
	5
	18
	7
	17
	7
	18
	5
	18
	9
	3
	18
	1
	21
	8
	14
	12
	7
	16
	11
	7
	14
	10
	18
	2
	21
	7
	14
	10
	18
	2
	21
	7
	14
	12
	9
	14
	10
	7
	14
	12
	18
	0
	21
	7
	16
	10
	8
	16
	7
	21
	1
	19
	10
	16
	7
	21
	1
	19
	10
	16
	7
	21
	2
	18
	10
	14
	7
	21
	1
	18
	12
